nK = 2243;
nT = 8;
nI = 21;
L = 29;
TT = 482;
np = 1;
nc = 3;
b = [68, 37, 55, 46, 31, 44, 20, 49, 43, 60, 32, 28, 43, 31, 40, 43, 25, 59, 42, 29, 30];
d = [115, 60, 105, 76, 90, 73, 103, 115, 91, 132, 109, 56, 133, 127, 108, 72, 129, 127, 118, 54, 116];
m = [1.1, 2.1, 1.6, 1.8, 1.3, 2.1, 2.1, 1.1, 1.4, 1.6, 1.8, 1, 1.7, 1.3, 2.1, 1.9, 1, 1.1, 2.3, 1.2, 1.3];
pt = [0.29, 0.33, 0.27, 0.32, 0.21, 0.28, 0.29, 0.21];
st = [16.24, 15.84, 10.8, 17.92, 10.92, 14.56, 15.08, 11.97];
arc = {<1, 0, 1, 1, 0, 0, 0, [1, 1, 1, 1, 1, 1, 1, 1]>, <2, 1, 2, 1, 0, 0, 0, [1, 1, 1, 1, 1, 1, 1, 1]>, <3, 2, 3, 1, 0, 0, 0, [1, 1, 1, 1, 1, 1, 1, 1]>, <4, 3, 4, 1, 0, 0, 0, [1, 1, 1, 1, 1, 1, 1, 1]>, <5, 4, 5, 1, 0, 0, 0, [1, 1, 1, 1, 1, 1, 1, 1]>, <6, 5, 6, 1, 0, 0, 0, [1, 1, 1, 1, 1, 1, 1, 1]>, <7, 6, 7, 1, 0, 0, 0, [1, 1, 1, 1, 1, 1, 1, 1]>, <8, 7, 8, 1, 0, 0, 0, [1, 1, 1, 1, 1, 1, 1, 1]>, <9, 8, 9, 1, 0, 0, 0, [1, 1, 1, 1, 1, 1, 1, 1]>, <10, 9, 10, 1, 0, 0, 0, [1, 1, 1, 1, 1, 1, 1, 1]>, <11, 10, 11, 1, 0, 0, 0, [1, 1, 1, 1, 1, 1, 1, 1]>, <12, 11, 12, 1, 0, 0, 0, [1, 1, 1, 1, 1, 1, 1, 1]>, <13, 12, 13, 1, 0, 0, 0, [1, 1, 1, 1, 1, 1, 1, 1]>, <14, 13, 14, 1, 0, 0, 0, [1, 1, 1, 1, 1, 1, 1, 1]>, <15, 14, 15, 1, 0, 0, 0, [1, 1, 1, 1, 1, 1, 1, 1]>, <16, 15, 16, 1, 0, 0, 0, [1, 1, 1, 1, 1, 1, 1, 1]>, <17, 16, 17, 1, 0, 0, 0, [1, 1, 1, 1, 1, 1, 1, 1]>, <18, 17, 18, 1, 0, 0, 0, [1, 1, 1, 1, 1, 1, 1, 1]>, <19, 18, 19, 1, 0, 0, 0, [1, 1, 1, 1, 1, 1, 1, 1]>, <20, 19, 20, 1, 0, 0, 0, [1, 1, 1, 1, 1, 1, 1, 1]>, <21, 20, 21, 1, 0, 0, 0, [1, 1, 1, 1, 1, 1, 1, 1]>, <22, 21, 22, 1, 0, 0, 0, [1, 1, 1, 1, 1, 1, 1, 1]>, <23, 22, 23, 1, 0, 0, 0, [1, 1, 1, 1, 1, 1, 1, 1]>, <24, 23, 24, 1, 0, 0, 0, [1, 1, 1, 1, 1, 1, 1, 1]>, <25, 24, 25, 1, 0, 0, 0, [1, 1, 1, 1, 1, 1, 1, 1]>, <26, 25, 26, 1, 0, 0, 0, [1, 1, 1, 1, 1, 1, 1, 1]>, <27, 26, 27, 1, 0, 0, 0, [1, 1, 1, 1, 1, 1, 1, 1]>, <28, 27, 28, 1, 0, 0, 0, [1, 1, 1, 1, 1, 1, 1, 1]>, <29, 28, 29, 1, 0, 0, 0, [1, 1, 1, 1, 1, 1, 1, 1]>, <30, 0, 13, 13, 1, 0, 0, [0, 0, 1, 1, 1, 1, 0, 0]>, <31, 1, 14, 13, 1, 0, 0, [0, 0, 1, 1, 1, 1, 0, 0]>, <32, 2, 15, 13, 1, 0, 0, [0, 0, 1, 1, 1, 1, 0, 0]>, <33, 3, 16, 13, 1, 0, 0, [0, 0, 1, 1, 1, 1, 0, 0]>, <34, 4, 17, 13, 1, 0, 0, [0, 0, 1, 1, 1, 1, 0, 0]>, <35, 5, 18, 13, 1, 0, 0, [0, 0, 1, 1, 1, 1, 0, 0]>, <36, 7, 20, 13, 1, 0, 0, [0, 0, 1, 1, 1, 1, 0, 0]>, <37, 8, 21, 13, 1, 0, 0, [0, 0, 1, 1, 1, 1, 0, 0]>, <38, 9, 22, 13, 1, 0, 0, [0, 0, 1, 1, 1, 1, 0, 0]>, <39, 10, 23, 13, 1, 0, 0, [0, 0, 1, 1, 1, 1, 0, 0]>, <40, 11, 24, 13, 1, 0, 0, [0, 0, 1, 1, 1, 1, 0, 0]>, <41, 12, 25, 13, 1, 0, 0, [0, 0, 1, 1, 1, 1, 0, 0]>, <42, 13, 26, 13, 1, 0, 0, [0, 0, 1, 1, 1, 1, 0, 0]>, <43, 14, 27, 13, 1, 0, 0, [0, 0, 1, 1, 1, 1, 0, 0]>, <44, 15, 28, 13, 1, 0, 0, [0, 0, 1, 1, 1, 1, 0, 0]>, <45, 16, 29, 13, 1, 0, 0, [0, 0, 1, 1, 1, 1, 0, 0]>, <46, 0, 14, 14, 2, 0, 0, [1, 1, 1, 0, 0, 0, 0, 1]>, <47, 1, 15, 14, 2, 0, 0, [1, 1, 1, 0, 0, 0, 0, 1]>, <48, 2, 16, 14, 2, 0, 0, [1, 1, 1, 0, 0, 0, 0, 1]>, <49, 3, 17, 14, 2, 0, 0, [1, 1, 1, 0, 0, 0, 0, 1]>, <50, 4, 18, 14, 2, 0, 0, [1, 1, 1, 0, 0, 0, 0, 1]>, <51, 5, 19, 14, 2, 0, 0, [1, 1, 1, 0, 0, 0, 0, 1]>, <52, 6, 20, 14, 2, 0, 0, [1, 1, 1, 0, 0, 0, 0, 1]>, <53, 7, 21, 14, 2, 0, 0, [1, 1, 1, 0, 0, 0, 0, 1]>, <54, 8, 22, 14, 2, 0, 0, [1, 1, 1, 0, 0, 0, 0, 1]>, <55, 9, 23, 14, 2, 0, 0, [1, 1, 1, 0, 0, 0, 0, 1]>, <56, 10, 24, 14, 2, 0, 0, [1, 1, 1, 0, 0, 0, 0, 1]>, <57, 11, 25, 14, 2, 0, 0, [1, 1, 1, 0, 0, 0, 0, 1]>, <58, 12, 26, 14, 2, 0, 0, [1, 1, 1, 0, 0, 0, 0, 1]>, <59, 13, 27, 14, 2, 0, 0, [1, 1, 1, 0, 0, 0, 0, 1]>, <60, 14, 28, 14, 2, 0, 0, [1, 1, 1, 0, 0, 0, 0, 1]>, <61, 15, 29, 14, 2, 0, 0, [1, 1, 1, 0, 0, 0, 0, 1]>, <62, 0, 12, 12, 3, 0, 0, [1, 1, 0, 0, 0, 0, 1, 1]>, <63, 1, 13, 12, 3, 0, 0, [1, 1, 0, 0, 0, 0, 1, 1]>, <64, 2, 14, 12, 3, 0, 0, [1, 1, 0, 0, 0, 0, 1, 1]>, <65, 3, 15, 12, 3, 0, 0, [1, 1, 0, 0, 0, 0, 1, 1]>, <66, 4, 16, 12, 3, 0, 0, [1, 1, 0, 0, 0, 0, 1, 1]>, <67, 5, 17, 12, 3, 0, 0, [1, 1, 0, 0, 0, 0, 1, 1]>, <68, 8, 20, 12, 3, 0, 0, [1, 1, 0, 0, 0, 0, 1, 1]>, <69, 9, 21, 12, 3, 0, 0, [1, 1, 0, 0, 0, 0, 1, 1]>, <70, 10, 22, 12, 3, 0, 0, [1, 1, 0, 0, 0, 0, 1, 1]>, <71, 11, 23, 12, 3, 0, 0, [1, 1, 0, 0, 0, 0, 1, 1]>, <72, 12, 24, 12, 3, 0, 0, [1, 1, 0, 0, 0, 0, 1, 1]>, <73, 13, 25, 12, 3, 0, 0, [1, 1, 0, 0, 0, 0, 1, 1]>, <74, 14, 26, 12, 3, 0, 0, [1, 1, 0, 0, 0, 0, 1, 1]>, <75, 15, 27, 12, 3, 0, 0, [1, 1, 0, 0, 0, 0, 1, 1]>, <76, 16, 28, 12, 3, 0, 0, [1, 1, 0, 0, 0, 0, 1, 1]>, <77, 17, 29, 12, 3, 0, 0, [1, 1, 0, 0, 0, 0, 1, 1]>, <78, 0, 14, 14, 4, 0, 1, [0, 0, 0, 1, 1, 1, 1, 0]>, <79, 1, 15, 14, 4, 0, 1, [0, 0, 0, 1, 1, 1, 1, 0]>, <80, 2, 16, 14, 4, 0, 1, [0, 0, 0, 1, 1, 1, 1, 0]>, <81, 3, 17, 14, 4, 0, 1, [0, 0, 0, 1, 1, 1, 1, 0]>, <82, 4, 18, 14, 4, 0, 1, [0, 0, 0, 1, 1, 1, 1, 0]>, <83, 5, 19, 14, 4, 0, 1, [0, 0, 0, 1, 1, 1, 1, 0]>, <84, 6, 20, 14, 4, 0, 1, [0, 0, 0, 1, 1, 1, 1, 0]>, <85, 7, 21, 14, 4, 0, 1, [0, 0, 0, 1, 1, 1, 1, 0]>, <86, 8, 22, 14, 4, 0, 1, [0, 0, 0, 1, 1, 1, 1, 0]>, <87, 9, 23, 14, 4, 0, 1, [0, 0, 0, 1, 1, 1, 1, 0]>, <88, 10, 24, 14, 4, 0, 1, [0, 0, 0, 1, 1, 1, 1, 0]>, <89, 11, 25, 14, 4, 0, 1, [0, 0, 0, 1, 1, 1, 1, 0]>, <90, 12, 26, 14, 4, 0, 1, [0, 0, 0, 1, 1, 1, 1, 0]>, <91, 13, 27, 14, 4, 0, 1, [0, 0, 0, 1, 1, 1, 1, 0]>, <92, 14, 28, 14, 4, 0, 1, [0, 0, 0, 1, 1, 1, 1, 0]>, <93, 15, 29, 14, 4, 0, 1, [0, 0, 0, 1, 1, 1, 1, 0]>, <94, 0, 13, 13, 5, 0, 0, [0, 0, 0, 1, 1, 1, 1, 0]>, <95, 1, 14, 13, 5, 0, 0, [0, 0, 0, 1, 1, 1, 1, 0]>, <96, 2, 15, 13, 5, 0, 0, [0, 0, 0, 1, 1, 1, 1, 0]>, <97, 3, 16, 13, 5, 0, 0, [0, 0, 0, 1, 1, 1, 1, 0]>, <98, 4, 17, 13, 5, 0, 0, [0, 0, 0, 1, 1, 1, 1, 0]>, <99, 5, 18, 13, 5, 0, 0, [0, 0, 0, 1, 1, 1, 1, 0]>, <100, 7, 20, 13, 5, 0, 0, [0, 0, 0, 1, 1, 1, 1, 0]>, <101, 8, 21, 13, 5, 0, 0, [0, 0, 0, 1, 1, 1, 1, 0]>, <102, 9, 22, 13, 5, 0, 0, [0, 0, 0, 1, 1, 1, 1, 0]>, <103, 10, 23, 13, 5, 0, 0, [0, 0, 0, 1, 1, 1, 1, 0]>, <104, 11, 24, 13, 5, 0, 0, [0, 0, 0, 1, 1, 1, 1, 0]>, <105, 12, 25, 13, 5, 0, 0, [0, 0, 0, 1, 1, 1, 1, 0]>, <106, 13, 26, 13, 5, 0, 0, [0, 0, 0, 1, 1, 1, 1, 0]>, <107, 14, 27, 13, 5, 0, 0, [0, 0, 0, 1, 1, 1, 1, 0]>, <108, 15, 28, 13, 5, 0, 0, [0, 0, 0, 1, 1, 1, 1, 0]>, <109, 16, 29, 13, 5, 0, 0, [0, 0, 0, 1, 1, 1, 1, 0]>, <110, 0, 12, 12, 6, 0, 0, [0, 0, 0, 0, 1, 1, 1, 1]>, <111, 1, 13, 12, 6, 0, 0, [0, 0, 0, 0, 1, 1, 1, 1]>, <112, 2, 14, 12, 6, 0, 0, [0, 0, 0, 0, 1, 1, 1, 1]>, <113, 3, 15, 12, 6, 0, 0, [0, 0, 0, 0, 1, 1, 1, 1]>, <114, 4, 16, 12, 6, 0, 0, [0, 0, 0, 0, 1, 1, 1, 1]>, <115, 5, 17, 12, 6, 0, 0, [0, 0, 0, 0, 1, 1, 1, 1]>, <116, 8, 20, 12, 6, 0, 0, [0, 0, 0, 0, 1, 1, 1, 1]>, <117, 9, 21, 12, 6, 0, 0, [0, 0, 0, 0, 1, 1, 1, 1]>, <118, 10, 22, 12, 6, 0, 0, [0, 0, 0, 0, 1, 1, 1, 1]>, <119, 11, 23, 12, 6, 0, 0, [0, 0, 0, 0, 1, 1, 1, 1]>, <120, 12, 24, 12, 6, 0, 0, [0, 0, 0, 0, 1, 1, 1, 1]>, <121, 13, 25, 12, 6, 0, 0, [0, 0, 0, 0, 1, 1, 1, 1]>, <122, 14, 26, 12, 6, 0, 0, [0, 0, 0, 0, 1, 1, 1, 1]>, <123, 15, 27, 12, 6, 0, 0, [0, 0, 0, 0, 1, 1, 1, 1]>, <124, 16, 28, 12, 6, 0, 0, [0, 0, 0, 0, 1, 1, 1, 1]>, <125, 17, 29, 12, 6, 0, 0, [0, 0, 0, 0, 1, 1, 1, 1]>, <126, 0, 13, 13, 7, 0, 0, [1, 1, 1, 0, 0, 0, 0, 1]>, <127, 1, 14, 13, 7, 0, 0, [1, 1, 1, 0, 0, 0, 0, 1]>, <128, 2, 15, 13, 7, 0, 0, [1, 1, 1, 0, 0, 0, 0, 1]>, <129, 3, 16, 13, 7, 0, 0, [1, 1, 1, 0, 0, 0, 0, 1]>, <130, 4, 17, 13, 7, 0, 0, [1, 1, 1, 0, 0, 0, 0, 1]>, <131, 5, 18, 13, 7, 0, 0, [1, 1, 1, 0, 0, 0, 0, 1]>, <132, 7, 20, 13, 7, 0, 0, [1, 1, 1, 0, 0, 0, 0, 1]>, <133, 8, 21, 13, 7, 0, 0, [1, 1, 1, 0, 0, 0, 0, 1]>, <134, 9, 22, 13, 7, 0, 0, [1, 1, 1, 0, 0, 0, 0, 1]>, <135, 10, 23, 13, 7, 0, 0, [1, 1, 1, 0, 0, 0, 0, 1]>, <136, 11, 24, 13, 7, 0, 0, [1, 1, 1, 0, 0, 0, 0, 1]>, <137, 12, 25, 13, 7, 0, 0, [1, 1, 1, 0, 0, 0, 0, 1]>, <138, 13, 26, 13, 7, 0, 0, [1, 1, 1, 0, 0, 0, 0, 1]>, <139, 14, 27, 13, 7, 0, 0, [1, 1, 1, 0, 0, 0, 0, 1]>, <140, 15, 28, 13, 7, 0, 0, [1, 1, 1, 0, 0, 0, 0, 1]>, <141, 16, 29, 13, 7, 0, 0, [1, 1, 1, 0, 0, 0, 0, 1]>, <142, 0, 14, 14, 8, 0, 0, [1, 1, 0, 0, 0, 0, 1, 1]>, <143, 1, 15, 14, 8, 0, 0, [1, 1, 0, 0, 0, 0, 1, 1]>, <144, 2, 16, 14, 8, 0, 0, [1, 1, 0, 0, 0, 0, 1, 1]>, <145, 3, 17, 14, 8, 0, 0, [1, 1, 0, 0, 0, 0, 1, 1]>, <146, 4, 18, 14, 8, 0, 0, [1, 1, 0, 0, 0, 0, 1, 1]>, <147, 5, 19, 14, 8, 0, 0, [1, 1, 0, 0, 0, 0, 1, 1]>, <148, 6, 20, 14, 8, 0, 0, [1, 1, 0, 0, 0, 0, 1, 1]>, <149, 7, 21, 14, 8, 0, 0, [1, 1, 0, 0, 0, 0, 1, 1]>, <150, 8, 22, 14, 8, 0, 0, [1, 1, 0, 0, 0, 0, 1, 1]>, <151, 9, 23, 14, 8, 0, 0, [1, 1, 0, 0, 0, 0, 1, 1]>, <152, 10, 24, 14, 8, 0, 0, [1, 1, 0, 0, 0, 0, 1, 1]>, <153, 11, 25, 14, 8, 0, 0, [1, 1, 0, 0, 0, 0, 1, 1]>, <154, 12, 26, 14, 8, 0, 0, [1, 1, 0, 0, 0, 0, 1, 1]>, <155, 13, 27, 14, 8, 0, 0, [1, 1, 0, 0, 0, 0, 1, 1]>, <156, 14, 28, 14, 8, 0, 0, [1, 1, 0, 0, 0, 0, 1, 1]>, <157, 15, 29, 14, 8, 0, 0, [1, 1, 0, 0, 0, 0, 1, 1]>, <158, 0, 13, 13, 9, 0, 0, [0, 0, 0, 1, 1, 1, 1, 0]>, <159, 1, 14, 13, 9, 0, 0, [0, 0, 0, 1, 1, 1, 1, 0]>, <160, 2, 15, 13, 9, 0, 0, [0, 0, 0, 1, 1, 1, 1, 0]>, <161, 3, 16, 13, 9, 0, 0, [0, 0, 0, 1, 1, 1, 1, 0]>, <162, 4, 17, 13, 9, 0, 0, [0, 0, 0, 1, 1, 1, 1, 0]>, <163, 5, 18, 13, 9, 0, 0, [0, 0, 0, 1, 1, 1, 1, 0]>, <164, 7, 20, 13, 9, 0, 0, [0, 0, 0, 1, 1, 1, 1, 0]>, <165, 8, 21, 13, 9, 0, 0, [0, 0, 0, 1, 1, 1, 1, 0]>, <166, 9, 22, 13, 9, 0, 0, [0, 0, 0, 1, 1, 1, 1, 0]>, <167, 10, 23, 13, 9, 0, 0, [0, 0, 0, 1, 1, 1, 1, 0]>, <168, 11, 24, 13, 9, 0, 0, [0, 0, 0, 1, 1, 1, 1, 0]>, <169, 12, 25, 13, 9, 0, 0, [0, 0, 0, 1, 1, 1, 1, 0]>, <170, 13, 26, 13, 9, 0, 0, [0, 0, 0, 1, 1, 1, 1, 0]>, <171, 14, 27, 13, 9, 0, 0, [0, 0, 0, 1, 1, 1, 1, 0]>, <172, 15, 28, 13, 9, 0, 0, [0, 0, 0, 1, 1, 1, 1, 0]>, <173, 16, 29, 13, 9, 0, 0, [0, 0, 0, 1, 1, 1, 1, 0]>, <174, 1, 12, 11, 10, 0, 0, [0, 0, 0, 1, 1, 1, 1, 0]>, <175, 2, 13, 11, 10, 0, 0, [0, 0, 0, 1, 1, 1, 1, 0]>, <176, 3, 14, 11, 10, 0, 0, [0, 0, 0, 1, 1, 1, 1, 0]>, <177, 4, 15, 11, 10, 0, 0, [0, 0, 0, 1, 1, 1, 1, 0]>, <178, 5, 16, 11, 10, 0, 0, [0, 0, 0, 1, 1, 1, 1, 0]>, <179, 9, 20, 11, 10, 0, 0, [0, 0, 0, 1, 1, 1, 1, 0]>, <180, 10, 21, 11, 10, 0, 0, [0, 0, 0, 1, 1, 1, 1, 0]>, <181, 11, 22, 11, 10, 0, 0, [0, 0, 0, 1, 1, 1, 1, 0]>, <182, 12, 23, 11, 10, 0, 0, [0, 0, 0, 1, 1, 1, 1, 0]>, <183, 13, 24, 11, 10, 0, 0, [0, 0, 0, 1, 1, 1, 1, 0]>, <184, 14, 25, 11, 10, 0, 0, [0, 0, 0, 1, 1, 1, 1, 0]>, <185, 15, 26, 11, 10, 0, 0, [0, 0, 0, 1, 1, 1, 1, 0]>, <186, 16, 27, 11, 10, 0, 0, [0, 0, 0, 1, 1, 1, 1, 0]>, <187, 17, 28, 11, 10, 0, 0, [0, 0, 0, 1, 1, 1, 1, 0]>, <188, 18, 29, 11, 10, 0, 0, [0, 0, 0, 1, 1, 1, 1, 0]>, <189, 1, 12, 11, 11, 0, 0, [0, 0, 0, 1, 1, 1, 1, 0]>, <190, 2, 13, 11, 11, 0, 0, [0, 0, 0, 1, 1, 1, 1, 0]>, <191, 3, 14, 11, 11, 0, 0, [0, 0, 0, 1, 1, 1, 1, 0]>, <192, 4, 15, 11, 11, 0, 0, [0, 0, 0, 1, 1, 1, 1, 0]>, <193, 5, 16, 11, 11, 0, 0, [0, 0, 0, 1, 1, 1, 1, 0]>, <194, 9, 20, 11, 11, 0, 0, [0, 0, 0, 1, 1, 1, 1, 0]>, <195, 10, 21, 11, 11, 0, 0, [0, 0, 0, 1, 1, 1, 1, 0]>, <196, 11, 22, 11, 11, 0, 0, [0, 0, 0, 1, 1, 1, 1, 0]>, <197, 12, 23, 11, 11, 0, 0, [0, 0, 0, 1, 1, 1, 1, 0]>, <198, 13, 24, 11, 11, 0, 0, [0, 0, 0, 1, 1, 1, 1, 0]>, <199, 14, 25, 11, 11, 0, 0, [0, 0, 0, 1, 1, 1, 1, 0]>, <200, 15, 26, 11, 11, 0, 0, [0, 0, 0, 1, 1, 1, 1, 0]>, <201, 16, 27, 11, 11, 0, 0, [0, 0, 0, 1, 1, 1, 1, 0]>, <202, 17, 28, 11, 11, 0, 0, [0, 0, 0, 1, 1, 1, 1, 0]>, <203, 18, 29, 11, 11, 0, 0, [0, 0, 0, 1, 1, 1, 1, 0]>, <204, 1, 12, 11, 12, 0, 0, [1, 0, 0, 0, 0, 1, 1, 1]>, <205, 2, 13, 11, 12, 0, 0, [1, 0, 0, 0, 0, 1, 1, 1]>, <206, 3, 14, 11, 12, 0, 0, [1, 0, 0, 0, 0, 1, 1, 1]>, <207, 4, 15, 11, 12, 0, 0, [1, 0, 0, 0, 0, 1, 1, 1]>, <208, 5, 16, 11, 12, 0, 0, [1, 0, 0, 0, 0, 1, 1, 1]>, <209, 9, 20, 11, 12, 0, 0, [1, 0, 0, 0, 0, 1, 1, 1]>, <210, 10, 21, 11, 12, 0, 0, [1, 0, 0, 0, 0, 1, 1, 1]>, <211, 11, 22, 11, 12, 0, 0, [1, 0, 0, 0, 0, 1, 1, 1]>, <212, 12, 23, 11, 12, 0, 0, [1, 0, 0, 0, 0, 1, 1, 1]>, <213, 13, 24, 11, 12, 0, 0, [1, 0, 0, 0, 0, 1, 1, 1]>, <214, 14, 25, 11, 12, 0, 0, [1, 0, 0, 0, 0, 1, 1, 1]>, <215, 15, 26, 11, 12, 0, 0, [1, 0, 0, 0, 0, 1, 1, 1]>, <216, 16, 27, 11, 12, 0, 0, [1, 0, 0, 0, 0, 1, 1, 1]>, <217, 17, 28, 11, 12, 0, 0, [1, 0, 0, 0, 0, 1, 1, 1]>, <218, 18, 29, 11, 12, 0, 0, [1, 0, 0, 0, 0, 1, 1, 1]>, <219, 0, 13, 13, 13, 1, 0, [0, 0, 1, 1, 1, 1, 0, 0]>, <220, 1, 14, 13, 13, 1, 0, [0, 0, 1, 1, 1, 1, 0, 0]>, <221, 2, 15, 13, 13, 1, 0, [0, 0, 1, 1, 1, 1, 0, 0]>, <222, 3, 16, 13, 13, 1, 0, [0, 0, 1, 1, 1, 1, 0, 0]>, <223, 4, 17, 13, 13, 1, 0, [0, 0, 1, 1, 1, 1, 0, 0]>, <224, 5, 18, 13, 13, 1, 0, [0, 0, 1, 1, 1, 1, 0, 0]>, <225, 7, 20, 13, 13, 1, 0, [0, 0, 1, 1, 1, 1, 0, 0]>, <226, 8, 21, 13, 13, 1, 0, [0, 0, 1, 1, 1, 1, 0, 0]>, <227, 9, 22, 13, 13, 1, 0, [0, 0, 1, 1, 1, 1, 0, 0]>, <228, 10, 23, 13, 13, 1, 0, [0, 0, 1, 1, 1, 1, 0, 0]>, <229, 11, 24, 13, 13, 1, 0, [0, 0, 1, 1, 1, 1, 0, 0]>, <230, 12, 25, 13, 13, 1, 0, [0, 0, 1, 1, 1, 1, 0, 0]>, <231, 13, 26, 13, 13, 1, 0, [0, 0, 1, 1, 1, 1, 0, 0]>, <232, 14, 27, 13, 13, 1, 0, [0, 0, 1, 1, 1, 1, 0, 0]>, <233, 15, 28, 13, 13, 1, 0, [0, 0, 1, 1, 1, 1, 0, 0]>, <234, 16, 29, 13, 13, 1, 0, [0, 0, 1, 1, 1, 1, 0, 0]>, <235, 0, 14, 14, 14, 0, 0, [1, 1, 0, 0, 0, 0, 1, 1]>, <236, 1, 15, 14, 14, 0, 0, [1, 1, 0, 0, 0, 0, 1, 1]>, <237, 2, 16, 14, 14, 0, 0, [1, 1, 0, 0, 0, 0, 1, 1]>, <238, 3, 17, 14, 14, 0, 0, [1, 1, 0, 0, 0, 0, 1, 1]>, <239, 4, 18, 14, 14, 0, 0, [1, 1, 0, 0, 0, 0, 1, 1]>, <240, 5, 19, 14, 14, 0, 0, [1, 1, 0, 0, 0, 0, 1, 1]>, <241, 6, 20, 14, 14, 0, 0, [1, 1, 0, 0, 0, 0, 1, 1]>, <242, 7, 21, 14, 14, 0, 0, [1, 1, 0, 0, 0, 0, 1, 1]>, <243, 8, 22, 14, 14, 0, 0, [1, 1, 0, 0, 0, 0, 1, 1]>, <244, 9, 23, 14, 14, 0, 0, [1, 1, 0, 0, 0, 0, 1, 1]>, <245, 10, 24, 14, 14, 0, 0, [1, 1, 0, 0, 0, 0, 1, 1]>, <246, 11, 25, 14, 14, 0, 0, [1, 1, 0, 0, 0, 0, 1, 1]>, <247, 12, 26, 14, 14, 0, 0, [1, 1, 0, 0, 0, 0, 1, 1]>, <248, 13, 27, 14, 14, 0, 0, [1, 1, 0, 0, 0, 0, 1, 1]>, <249, 14, 28, 14, 14, 0, 0, [1, 1, 0, 0, 0, 0, 1, 1]>, <250, 15, 29, 14, 14, 0, 0, [1, 1, 0, 0, 0, 0, 1, 1]>, <251, 1, 12, 11, 15, 0, 1, [1, 0, 0, 0, 0, 1, 1, 1]>, <252, 2, 13, 11, 15, 0, 1, [1, 0, 0, 0, 0, 1, 1, 1]>, <253, 3, 14, 11, 15, 0, 1, [1, 0, 0, 0, 0, 1, 1, 1]>, <254, 4, 15, 11, 15, 0, 1, [1, 0, 0, 0, 0, 1, 1, 1]>, <255, 5, 16, 11, 15, 0, 1, [1, 0, 0, 0, 0, 1, 1, 1]>, <256, 9, 20, 11, 15, 0, 1, [1, 0, 0, 0, 0, 1, 1, 1]>, <257, 10, 21, 11, 15, 0, 1, [1, 0, 0, 0, 0, 1, 1, 1]>, <258, 11, 22, 11, 15, 0, 1, [1, 0, 0, 0, 0, 1, 1, 1]>, <259, 12, 23, 11, 15, 0, 1, [1, 0, 0, 0, 0, 1, 1, 1]>, <260, 13, 24, 11, 15, 0, 1, [1, 0, 0, 0, 0, 1, 1, 1]>, <261, 14, 25, 11, 15, 0, 1, [1, 0, 0, 0, 0, 1, 1, 1]>, <262, 15, 26, 11, 15, 0, 1, [1, 0, 0, 0, 0, 1, 1, 1]>, <263, 16, 27, 11, 15, 0, 1, [1, 0, 0, 0, 0, 1, 1, 1]>, <264, 17, 28, 11, 15, 0, 1, [1, 0, 0, 0, 0, 1, 1, 1]>, <265, 18, 29, 11, 15, 0, 1, [1, 0, 0, 0, 0, 1, 1, 1]>, <266, 1, 12, 11, 16, 0, 0, [1, 0, 0, 0, 0, 1, 1, 1]>, <267, 2, 13, 11, 16, 0, 0, [1, 0, 0, 0, 0, 1, 1, 1]>, <268, 3, 14, 11, 16, 0, 0, [1, 0, 0, 0, 0, 1, 1, 1]>, <269, 4, 15, 11, 16, 0, 0, [1, 0, 0, 0, 0, 1, 1, 1]>, <270, 5, 16, 11, 16, 0, 0, [1, 0, 0, 0, 0, 1, 1, 1]>, <271, 9, 20, 11, 16, 0, 0, [1, 0, 0, 0, 0, 1, 1, 1]>, <272, 10, 21, 11, 16, 0, 0, [1, 0, 0, 0, 0, 1, 1, 1]>, <273, 11, 22, 11, 16, 0, 0, [1, 0, 0, 0, 0, 1, 1, 1]>, <274, 12, 23, 11, 16, 0, 0, [1, 0, 0, 0, 0, 1, 1, 1]>, <275, 13, 24, 11, 16, 0, 0, [1, 0, 0, 0, 0, 1, 1, 1]>, <276, 14, 25, 11, 16, 0, 0, [1, 0, 0, 0, 0, 1, 1, 1]>, <277, 15, 26, 11, 16, 0, 0, [1, 0, 0, 0, 0, 1, 1, 1]>, <278, 16, 27, 11, 16, 0, 0, [1, 0, 0, 0, 0, 1, 1, 1]>, <279, 17, 28, 11, 16, 0, 0, [1, 0, 0, 0, 0, 1, 1, 1]>, <280, 18, 29, 11, 16, 0, 0, [1, 0, 0, 0, 0, 1, 1, 1]>, <281, 0, 12, 12, 17, 0, 0, [1, 1, 1, 1, 0, 0, 0, 0]>, <282, 1, 13, 12, 17, 0, 0, [1, 1, 1, 1, 0, 0, 0, 0]>, <283, 2, 14, 12, 17, 0, 0, [1, 1, 1, 1, 0, 0, 0, 0]>, <284, 3, 15, 12, 17, 0, 0, [1, 1, 1, 1, 0, 0, 0, 0]>, <285, 4, 16, 12, 17, 0, 0, [1, 1, 1, 1, 0, 0, 0, 0]>, <286, 5, 17, 12, 17, 0, 0, [1, 1, 1, 1, 0, 0, 0, 0]>, <287, 8, 20, 12, 17, 0, 0, [1, 1, 1, 1, 0, 0, 0, 0]>, <288, 9, 21, 12, 17, 0, 0, [1, 1, 1, 1, 0, 0, 0, 0]>, <289, 10, 22, 12, 17, 0, 0, [1, 1, 1, 1, 0, 0, 0, 0]>, <290, 11, 23, 12, 17, 0, 0, [1, 1, 1, 1, 0, 0, 0, 0]>, <291, 12, 24, 12, 17, 0, 0, [1, 1, 1, 1, 0, 0, 0, 0]>, <292, 13, 25, 12, 17, 0, 0, [1, 1, 1, 1, 0, 0, 0, 0]>, <293, 14, 26, 12, 17, 0, 0, [1, 1, 1, 1, 0, 0, 0, 0]>, <294, 15, 27, 12, 17, 0, 0, [1, 1, 1, 1, 0, 0, 0, 0]>, <295, 16, 28, 12, 17, 0, 0, [1, 1, 1, 1, 0, 0, 0, 0]>, <296, 17, 29, 12, 17, 0, 0, [1, 1, 1, 1, 0, 0, 0, 0]>, <297, 1, 12, 11, 18, 1, 0, [1, 0, 0, 0, 0, 1, 1, 1]>, <298, 2, 13, 11, 18, 1, 0, [1, 0, 0, 0, 0, 1, 1, 1]>, <299, 3, 14, 11, 18, 1, 0, [1, 0, 0, 0, 0, 1, 1, 1]>, <300, 4, 15, 11, 18, 1, 0, [1, 0, 0, 0, 0, 1, 1, 1]>, <301, 5, 16, 11, 18, 1, 0, [1, 0, 0, 0, 0, 1, 1, 1]>, <302, 9, 20, 11, 18, 1, 0, [1, 0, 0, 0, 0, 1, 1, 1]>, <303, 10, 21, 11, 18, 1, 0, [1, 0, 0, 0, 0, 1, 1, 1]>, <304, 11, 22, 11, 18, 1, 0, [1, 0, 0, 0, 0, 1, 1, 1]>, <305, 12, 23, 11, 18, 1, 0, [1, 0, 0, 0, 0, 1, 1, 1]>, <306, 13, 24, 11, 18, 1, 0, [1, 0, 0, 0, 0, 1, 1, 1]>, <307, 14, 25, 11, 18, 1, 0, [1, 0, 0, 0, 0, 1, 1, 1]>, <308, 15, 26, 11, 18, 1, 0, [1, 0, 0, 0, 0, 1, 1, 1]>, <309, 16, 27, 11, 18, 1, 0, [1, 0, 0, 0, 0, 1, 1, 1]>, <310, 17, 28, 11, 18, 1, 0, [1, 0, 0, 0, 0, 1, 1, 1]>, <311, 18, 29, 11, 18, 1, 0, [1, 0, 0, 0, 0, 1, 1, 1]>, <312, 0, 12, 12, 19, 0, 0, [1, 0, 0, 0, 0, 1, 1, 1]>, <313, 1, 13, 12, 19, 0, 0, [1, 0, 0, 0, 0, 1, 1, 1]>, <314, 2, 14, 12, 19, 0, 0, [1, 0, 0, 0, 0, 1, 1, 1]>, <315, 3, 15, 12, 19, 0, 0, [1, 0, 0, 0, 0, 1, 1, 1]>, <316, 4, 16, 12, 19, 0, 0, [1, 0, 0, 0, 0, 1, 1, 1]>, <317, 5, 17, 12, 19, 0, 0, [1, 0, 0, 0, 0, 1, 1, 1]>, <318, 8, 20, 12, 19, 0, 0, [1, 0, 0, 0, 0, 1, 1, 1]>, <319, 9, 21, 12, 19, 0, 0, [1, 0, 0, 0, 0, 1, 1, 1]>, <320, 10, 22, 12, 19, 0, 0, [1, 0, 0, 0, 0, 1, 1, 1]>, <321, 11, 23, 12, 19, 0, 0, [1, 0, 0, 0, 0, 1, 1, 1]>, <322, 12, 24, 12, 19, 0, 0, [1, 0, 0, 0, 0, 1, 1, 1]>, <323, 13, 25, 12, 19, 0, 0, [1, 0, 0, 0, 0, 1, 1, 1]>, <324, 14, 26, 12, 19, 0, 0, [1, 0, 0, 0, 0, 1, 1, 1]>, <325, 15, 27, 12, 19, 0, 0, [1, 0, 0, 0, 0, 1, 1, 1]>, <326, 16, 28, 12, 19, 0, 0, [1, 0, 0, 0, 0, 1, 1, 1]>, <327, 17, 29, 12, 19, 0, 0, [1, 0, 0, 0, 0, 1, 1, 1]>, <328, 2, 12, 10, 20, 0, 0, [1, 0, 0, 0, 0, 1, 1, 1]>, <329, 3, 13, 10, 20, 0, 0, [1, 0, 0, 0, 0, 1, 1, 1]>, <330, 4, 14, 10, 20, 0, 0, [1, 0, 0, 0, 0, 1, 1, 1]>, <331, 5, 15, 10, 20, 0, 0, [1, 0, 0, 0, 0, 1, 1, 1]>, <332, 10, 20, 10, 20, 0, 0, [1, 0, 0, 0, 0, 1, 1, 1]>, <333, 11, 21, 10, 20, 0, 0, [1, 0, 0, 0, 0, 1, 1, 1]>, <334, 12, 22, 10, 20, 0, 0, [1, 0, 0, 0, 0, 1, 1, 1]>, <335, 14, 24, 10, 20, 0, 0, [1, 0, 0, 0, 0, 1, 1, 1]>, <336, 15, 25, 10, 20, 0, 0, [1, 0, 0, 0, 0, 1, 1, 1]>, <337, 16, 26, 10, 20, 0, 0, [1, 0, 0, 0, 0, 1, 1, 1]>, <338, 17, 27, 10, 20, 0, 0, [1, 0, 0, 0, 0, 1, 1, 1]>, <339, 18, 28, 10, 20, 0, 0, [1, 0, 0, 0, 0, 1, 1, 1]>, <340, 19, 29, 10, 20, 0, 0, [1, 0, 0, 0, 0, 1, 1, 1]>, <341, 0, 12, 12, 21, 0, 0, [1, 1, 1, 0, 0, 0, 0, 1]>, <342, 1, 13, 12, 21, 0, 0, [1, 1, 1, 0, 0, 0, 0, 1]>, <343, 2, 14, 12, 21, 0, 0, [1, 1, 1, 0, 0, 0, 0, 1]>, <344, 3, 15, 12, 21, 0, 0, [1, 1, 1, 0, 0, 0, 0, 1]>, <345, 4, 16, 12, 21, 0, 0, [1, 1, 1, 0, 0, 0, 0, 1]>, <346, 5, 17, 12, 21, 0, 0, [1, 1, 1, 0, 0, 0, 0, 1]>, <347, 8, 20, 12, 21, 0, 0, [1, 1, 1, 0, 0, 0, 0, 1]>, <348, 9, 21, 12, 21, 0, 0, [1, 1, 1, 0, 0, 0, 0, 1]>, <349, 10, 22, 12, 21, 0, 0, [1, 1, 1, 0, 0, 0, 0, 1]>, <350, 11, 23, 12, 21, 0, 0, [1, 1, 1, 0, 0, 0, 0, 1]>, <351, 12, 24, 12, 21, 0, 0, [1, 1, 1, 0, 0, 0, 0, 1]>, <352, 13, 25, 12, 21, 0, 0, [1, 1, 1, 0, 0, 0, 0, 1]>, <353, 14, 26, 12, 21, 0, 0, [1, 1, 1, 0, 0, 0, 0, 1]>, <354, 15, 27, 12, 21, 0, 0, [1, 1, 1, 0, 0, 0, 0, 1]>, <355, 16, 28, 12, 21, 0, 0, [1, 1, 1, 0, 0, 0, 0, 1]>, <356, 17, 29, 12, 21, 0, 0, [1, 1, 1, 0, 0, 0, 0, 1]>};
